
ASes= { 1, 2, 3, 4, 5, 6, 7, 8, 9, 10, 11 } ;


Objects= { 1, 2, 3, 4, 5, 6, 7, 8, 9, 10, 11, 12, 13, 14, 15, 16, 17, 18, 19, 20, 21, 22, 23, 24, 25, 26, 27, 28, 29, 30, 31, 32, 33, 34, 35, 36, 37, 38, 39, 40, 41, 42, 43, 44, 45, 46, 47, 48, 49, 50, 51, 52, 53, 54, 55, 56, 57, 58, 59, 60, 61, 62, 63, 64, 65, 66, 67, 68, 69, 70, 71, 72, 73, 74, 75, 76, 77, 78, 79, 80, 81, 82, 83, 84, 85, 86, 87, 88, 89, 90, 91, 92, 93, 94, 95, 96, 97, 98, 99, 100 } ;


QualityLevels= { 0, 1, 2, 3, 4, 5 } ;

Arcs = {<2,1,490000>, <1,2,490000>, <11,1,490000>, <1,11,490000>, <11,2,490000>, <2,11,490000>, <11,10,490000>, <10,11,490000>, <3,2,490000>, <2,3,490000>, <4,3,490000>, <3,4,490000>, <5,4,490000>, <4,5,490000>, <6,5,490000>, <5,6,490000>, <7,6,490000>, <6,7,490000>, <8,4,490000>, <4,8,490000>, <8,7,490000>, <7,8,490000>, <9,3,490000>, <3,9,490000>, <9,8,490000>, <8,9,490000>, <10,9,490000>, <9,10,490000>};


RatePerQuality= [ 0  300  700  1500  2500  3500 ] ;


CacheSpacePerQuality= [ 10000  11.25  26.25  56.25  93.75  131.25 ] ;


UtilityPerQuality= [ 0  0.2  0.4  0.6  0.8  1 ] ;


ObjectsPublishedByProducers=[ [ 0  0  0  0  0  0  0  1  0  0  0 ]  [ 0  0  0  0  0  0  0  1  0  0  0 ]  [ 0  0  0  0  0  0  0  1  0  0  0 ]  [ 0  0  0  0  0  0  0  1  0  0  0 ]  [ 0  0  0  0  0  0  0  1  0  0  0 ]  [ 0  0  0  0  0  0  0  1  0  0  0 ]  [ 0  0  0  0  0  0  0  1  0  0  0 ]  [ 0  0  0  0  0  0  0  1  0  0  0 ]  [ 0  0  0  0  0  0  0  1  0  0  0 ]  [ 0  0  0  0  0  0  0  1  0  0  0 ]  [ 0  0  0  0  0  0  0  1  0  0  0 ]  [ 0  0  0  0  0  0  0  1  0  0  0 ]  [ 0  0  0  0  0  0  0  1  0  0  0 ]  [ 0  0  0  0  0  0  0  1  0  0  0 ]  [ 0  0  0  0  0  0  0  1  0  0  0 ]  [ 0  0  0  0  0  0  0  1  0  0  0 ]  [ 0  0  0  0  0  0  0  1  0  0  0 ]  [ 0  0  0  0  0  0  0  1  0  0  0 ]  [ 0  0  0  0  0  0  0  1  0  0  0 ]  [ 0  0  0  0  0  0  0  1  0  0  0 ]  [ 0  0  0  0  0  0  0  1  0  0  0 ]  [ 0  0  0  0  0  0  0  1  0  0  0 ]  [ 0  0  0  0  0  0  0  1  0  0  0 ]  [ 0  0  0  0  0  0  0  1  0  0  0 ]  [ 0  0  0  0  0  0  0  1  0  0  0 ]  [ 0  0  0  0  0  0  0  1  0  0  0 ]  [ 0  0  0  0  0  0  0  1  0  0  0 ]  [ 0  0  0  0  0  0  0  1  0  0  0 ]  [ 0  0  0  0  0  0  0  1  0  0  0 ]  [ 0  0  0  0  0  0  0  1  0  0  0 ]  [ 0  0  0  0  0  0  0  1  0  0  0 ]  [ 0  0  0  0  0  0  0  1  0  0  0 ]  [ 0  0  0  0  0  0  0  1  0  0  0 ]  [ 0  0  0  0  0  0  0  1  0  0  0 ]  [ 0  0  0  0  0  0  0  1  0  0  0 ]  [ 0  0  0  0  0  0  0  1  0  0  0 ]  [ 0  0  0  0  0  0  0  1  0  0  0 ]  [ 0  0  0  0  0  0  0  1  0  0  0 ]  [ 0  0  0  0  0  0  0  1  0  0  0 ]  [ 0  0  0  0  0  0  0  1  0  0  0 ]  [ 0  0  0  0  0  0  0  1  0  0  0 ]  [ 0  0  0  0  0  0  0  1  0  0  0 ]  [ 0  0  0  0  0  0  0  1  0  0  0 ]  [ 0  0  0  0  0  0  0  1  0  0  0 ]  [ 0  0  0  0  0  0  0  1  0  0  0 ]  [ 0  0  0  0  0  0  0  1  0  0  0 ]  [ 0  0  0  0  0  0  0  1  0  0  0 ]  [ 0  0  0  0  0  0  0  1  0  0  0 ]  [ 0  0  0  0  0  0  0  1  0  0  0 ]  [ 0  0  0  0  0  0  0  1  0  0  0 ]  [ 0  0  0  0  0  0  0  1  0  0  0 ]  [ 0  0  0  0  0  0  0  1  0  0  0 ]  [ 0  0  0  0  0  0  0  1  0  0  0 ]  [ 0  0  0  0  0  0  0  1  0  0  0 ]  [ 0  0  0  0  0  0  0  1  0  0  0 ]  [ 0  0  0  0  0  0  0  1  0  0  0 ]  [ 0  0  0  0  0  0  0  1  0  0  0 ]  [ 0  0  0  0  0  0  0  1  0  0  0 ]  [ 0  0  0  0  0  0  0  1  0  0  0 ]  [ 0  0  0  0  0  0  0  1  0  0  0 ]  [ 0  0  0  0  0  0  0  1  0  0  0 ]  [ 0  0  0  0  0  0  0  1  0  0  0 ]  [ 0  0  0  0  0  0  0  1  0  0  0 ]  [ 0  0  0  0  0  0  0  1  0  0  0 ]  [ 0  0  0  0  0  0  0  1  0  0  0 ]  [ 0  0  0  0  0  0  0  1  0  0  0 ]  [ 0  0  0  0  0  0  0  1  0  0  0 ]  [ 0  0  0  0  0  0  0  1  0  0  0 ]  [ 0  0  0  0  0  0  0  1  0  0  0 ]  [ 0  0  0  0  0  0  0  1  0  0  0 ]  [ 0  0  0  0  0  0  0  1  0  0  0 ]  [ 0  0  0  0  0  0  0  1  0  0  0 ]  [ 0  0  0  0  0  0  0  1  0  0  0 ]  [ 0  0  0  0  0  0  0  1  0  0  0 ]  [ 0  0  0  0  0  0  0  1  0  0  0 ]  [ 0  0  0  0  0  0  0  1  0  0  0 ]  [ 0  0  0  0  0  0  0  1  0  0  0 ]  [ 0  0  0  0  0  0  0  1  0  0  0 ]  [ 0  0  0  0  0  0  0  1  0  0  0 ]  [ 0  0  0  0  0  0  0  1  0  0  0 ]  [ 0  0  0  0  0  0  0  1  0  0  0 ]  [ 0  0  0  0  0  0  0  1  0  0  0 ]  [ 0  0  0  0  0  0  0  1  0  0  0 ]  [ 0  0  0  0  0  0  0  1  0  0  0 ]  [ 0  0  0  0  0  0  0  1  0  0  0 ]  [ 0  0  0  0  0  0  0  1  0  0  0 ]  [ 0  0  0  0  0  0  0  1  0  0  0 ]  [ 0  0  0  0  0  0  0  1  0  0  0 ]  [ 0  0  0  0  0  0  0  1  0  0  0 ]  [ 0  0  0  0  0  0  0  1  0  0  0 ]  [ 0  0  0  0  0  0  0  1  0  0  0 ]  [ 0  0  0  0  0  0  0  1  0  0  0 ]  [ 0  0  0  0  0  0  0  1  0  0  0 ]  [ 0  0  0  0  0  0  0  1  0  0  0 ]  [ 0  0  0  0  0  0  0  1  0  0  0 ]  [ 0  0  0  0  0  0  0  1  0  0  0 ]  [ 0  0  0  0  0  0  0  1  0  0  0 ]  [ 0  0  0  0  0  0  0  1  0  0  0 ]  [ 0  0  0  0  0  0  0  1  0  0  0 ]  [ 0  0  0  0  0  0  0  1  0  0  0 ] ];

ObjRequests = {  <1,5,1503>, <2,5,291>, <3,5,219>, <4,5,95>, <5,5,234>, <6,5,112>, <7,5,22>, <8,5,14>, <9,5,18>, <10,5,57>, <11,5,38>, <12,5,79>, <13,5,143>, <14,5,31>, <15,5,3>, <16,5,36>, <17,5,50>, <18,5,28>, <19,5,10>, <20,5,29>, <21,5,45>, <22,5,36>, <23,5,57>, <24,5,47>, <25,5,27>, <26,5,27>, <27,5,51>, <28,5,36>, <29,5,39>, <30,5,2>, <31,5,15>, <32,5,3>, <33,5,9>, <34,5,19>, <35,5,9>, <36,5,5>, <37,5,36>, <38,5,13>, <39,5,7>, <40,5,55>, <41,5,49>, <42,5,8>, <43,5,22>, <44,5,8>, <45,5,29>, <46,5,39>, <48,5,30>, <49,5,6>, <50,5,28>, <51,5,6>, <52,5,6>, <53,5,6>, <54,5,15>, <55,5,7>, <56,5,1>, <57,5,7>, <58,5,6>, <59,5,15>, <60,5,15>, <61,5,1>, <62,5,17>, <63,5,10>, <64,5,5>, <65,5,4>, <66,5,18>, <67,5,1>, <68,5,3>, <69,5,2>, <70,5,16>, <71,5,1>, <72,5,9>, <73,5,5>, <74,5,22>, <75,5,4>, <76,5,21>, <77,5,16>, <78,5,5>, <79,5,13>, <80,5,3>, <81,5,12>, <82,5,24>, <83,5,25>, <84,5,6>, <85,5,16>, <86,5,4>, <87,5,3>, <88,5,3>, <90,5,2>, <91,5,1>, <92,5,3>, <93,5,1>, <94,5,13>, <95,5,23>, <96,5,2>, <97,5,5>, <98,5,5>, <99,5,4>, <100,5,8>, <1,6,446>, <2,6,572>, <3,6,197>, <4,6,277>, <5,6,66>, <6,6,14>, <7,6,230>, <8,6,56>, <9,6,200>, <10,6,55>, <11,6,98>, <12,6,7>, <13,6,41>, <14,6,16>, <15,6,61>, <16,6,8>, <17,6,84>, <18,6,37>, <19,6,7>, <20,6,1>, <21,6,5>, <22,6,11>, <23,6,1>, <24,6,47>, <25,6,63>, <26,6,17>, <27,6,19>, <28,6,3>, <29,6,8>, <30,6,4>, <31,6,22>, <32,6,9>, <33,6,13>, <34,6,32>, <36,6,11>, <37,6,33>, <38,6,9>, <39,6,11>, <40,6,2>, <41,6,19>, <42,6,39>, <43,6,2>, <44,6,37>, <45,6,8>, <46,6,10>, <47,6,8>, <48,6,1>, <49,6,6>, <50,6,6>, <51,6,11>, <52,6,18>, <53,6,2>, <54,6,10>, <55,6,7>, <56,6,25>, <57,6,13>, <58,6,12>, <59,6,10>, <60,6,2>, <61,6,6>, <62,6,2>, <63,6,1>, <64,6,28>, <65,6,15>, <66,6,5>, <67,6,15>, <68,6,18>, <69,6,14>, <70,6,6>, <71,6,8>, <72,6,4>, <73,6,4>, <74,6,10>, <75,6,5>, <76,6,4>, <77,6,6>, <78,6,1>, <79,6,6>, <81,6,20>, <82,6,6>, <85,6,9>, <86,6,8>, <87,6,11>, <88,6,8>, <89,6,6>, <90,6,5>, <91,6,5>, <92,6,11>, <93,6,2>, <94,6,6>, <95,6,3>, <96,6,5>, <97,6,5>, <98,6,8>, <99,6,9>, <100,6,2>, <1,7,409>, <2,7,401>, <3,7,137>, <4,7,130>, <5,7,19>, <6,7,108>, <7,7,23>, <8,7,181>, <9,7,24>, <10,7,67>, <11,7,52>, <12,7,51>, <13,7,16>, <14,7,11>, <15,7,93>, <16,7,59>, <17,7,25>, <18,7,32>, <19,7,119>, <20,7,74>, <21,7,2>, <22,7,46>, <23,7,3>, <24,7,19>, <25,7,2>, <26,7,13>, <27,7,27>, <28,7,32>, <29,7,32>, <30,7,73>, <31,7,31>, <32,7,68>, <33,7,20>, <34,7,7>, <35,7,13>, <36,7,36>, <37,7,17>, <38,7,3>, <39,7,13>, <40,7,3>, <41,7,9>, <44,7,1>, <45,7,9>, <46,7,7>, <47,7,7>, <48,7,3>, <49,7,9>, <50,7,8>, <51,7,12>, <52,7,8>, <54,7,3>, <55,7,11>, <56,7,1>, <57,7,22>, <58,7,4>, <59,7,1>, <60,7,18>, <61,7,30>, <62,7,5>, <63,7,22>, <64,7,12>, <65,7,1>, <66,7,2>, <67,7,14>, <68,7,1>, <69,7,13>, <70,7,4>, <71,7,33>, <72,7,24>, <73,7,18>, <74,7,1>, <75,7,11>, <76,7,12>, <77,7,8>, <78,7,13>, <79,7,5>, <80,7,1>, <81,7,1>, <82,7,6>, <83,7,4>, <84,7,15>, <85,7,2>, <86,7,7>, <87,7,5>, <90,7,13>, <91,7,17>, <92,7,1>, <93,7,10>, <94,7,5>, <95,7,2>, <96,7,9>, <98,7,2>, <99,7,7>, <100,7,6>, <1,1,141>, <2,1,72>, <3,1,414>, <4,1,12>, <5,1,210>, <6,1,11>, <7,1,41>, <8,1,140>, <9,1,66>, <10,1,19>, <11,1,2>, <12,1,84>, <13,1,44>, <14,1,38>, <16,1,4>, <17,1,12>, <18,1,63>, <19,1,2>, <20,1,23>, <21,1,11>, <22,1,13>, <23,1,7>, <24,1,15>, <25,1,3>, <26,1,6>, <27,1,10>, <28,1,20>, <29,1,22>, <30,1,18>, <31,1,4>, <32,1,10>, <33,1,5>, <34,1,17>, <35,1,12>, <36,1,15>, <37,1,5>, <38,1,3>, <39,1,14>, <40,1,8>, <41,1,18>, <42,1,8>, <43,1,23>, <44,1,17>, <45,1,24>, <46,1,23>, <47,1,16>, <48,1,16>, <49,1,13>, <50,1,1>, <51,1,22>, <52,1,15>, <53,1,24>, <54,1,26>, <55,1,27>, <56,1,38>, <57,1,6>, <58,1,31>, <59,1,17>, <60,1,4>, <61,1,15>, <62,1,13>, <63,1,5>, <64,1,4>, <65,1,13>, <66,1,15>, <67,1,8>, <68,1,2>, <69,1,9>, <70,1,6>, <71,1,11>, <72,1,7>, <73,1,13>, <74,1,11>, <75,1,1>, <76,1,4>, <77,1,22>, <78,1,13>, <79,1,7>, <80,1,18>, <81,1,9>, <82,1,1>, <83,1,7>, <84,1,10>, <86,1,16>, <87,1,16>, <88,1,1>, <89,1,22>, <90,1,10>, <91,1,9>, <92,1,6>, <93,1,7>, <94,1,1>, <95,1,9>, <97,1,27>, <98,1,10>, <99,1,3>, <100,1,2>, <1,10,648>, <2,10,258>, <3,10,85>, <4,10,265>, <5,10,113>, <6,10,288>, <7,10,101>, <8,10,16>, <9,10,41>, <10,10,127>, <11,10,113>, <12,10,30>, <13,10,7>, <14,10,152>, <15,10,22>, <16,10,82>, <17,10,3>, <18,10,25>, <19,10,8>, <20,10,39>, <21,10,70>, <22,10,37>, <23,10,60>, <24,10,1>, <25,10,33>, <26,10,48>, <27,10,15>, <28,10,3>, <29,10,1>, <30,10,5>, <31,10,29>, <33,10,40>, <34,10,6>, <35,10,53>, <36,10,19>, <37,10,3>, <38,10,53>, <39,10,33>, <40,10,2>, <41,10,6>, <42,10,32>, <43,10,30>, <44,10,10>, <45,10,2>, <47,10,30>, <48,10,13>, <49,10,10>, <50,10,19>, <51,10,13>, <52,10,7>, <53,10,22>, <54,10,4>, <55,10,1>, <56,10,7>, <57,10,9>, <58,10,7>, <59,10,14>, <60,10,11>, <61,10,6>, <62,10,26>, <63,10,8>, <65,10,14>, <66,10,2>, <67,10,9>, <68,10,16>, <69,10,3>, <70,10,2>, <71,10,4>, <72,10,3>, <73,10,5>, <74,10,10>, <75,10,15>, <76,10,7>, <77,10,6>, <78,10,9>, <79,10,2>, <80,10,12>, <81,10,1>, <82,10,9>, <83,10,11>, <84,10,7>, <85,10,1>, <86,10,14>, <87,10,5>, <88,10,24>, <90,10,4>, <91,10,1>, <92,10,9>, <93,10,6>, <94,10,15>, <95,10,1>, <96,10,27>, <97,10,1>, <98,10,6>, <99,10,7>, <100,10,12> };

MaxCacheStorageAtSingleAS= [ 131.25  131.25  131.25  131.25  131.25  131.25  131.25  131.25  131.25  131.25  131.25 ] ;

MaxCacheStorage = 1443.75 ;
SolutionGap = 0.01 ;
